IBM ILOG CPLEX Optimization Studio Academic Research Edition

<<< setup


<<< generate

Tried aggregator 1 time.
MIP Presolve eliminated 2156 rows and 1184 columns.
MIP Presolve modified 1225 coefficients.
Reduced MIP has 799 rows, 313 columns, and 2120 nonzeros.
Reduced MIP has 279 binaries, 34 generals, 0 SOSs, and 0 indicators.
Probing fixed 25 vars, tightened 83 bounds.
Probing time =    0,02 sec.
Tried aggregator 1 time.
MIP Presolve eliminated 50 rows and 25 columns.
MIP Presolve modified 219 coefficients.
Reduced MIP has 749 rows, 288 columns, and 1970 nonzeros.
Reduced MIP has 254 binaries, 34 generals, 0 SOSs, and 0 indicators.
Presolve time =    0,02 sec.
Probing time =    0,00 sec.
Clique table members: 429.
MIP emphasis: balance optimality and feasibility.
MIP search method: dynamic search.
Parallel mode: deterministic, using up to 8 threads.
Root relaxation solution time =    0,00 sec.

        Nodes                                         Cuts/
   Node  Left     Objective  IInf  Best Integer    Best Bound    ItCnt     Gap

      0     0      888,0000    24                    888,0000       54         
      0     0      888,0000    77                   Cuts: 105      189         
      0     2      888,0000    26                    888,0000      189         
Elapsed real time =   0,06 sec. (tree size =  0,01 MB, solutions = 0)
   2934   211      888,0000     7                    888,0000    20247         
  10233   284      888,0000    18                    888,0000    59839         
  10651   319      888,0000     8                    888,0000    62272         
  18320   332      888,0000    17                    888,0000   102393         
  26684   451    infeasible                          888,0000   143662         
  35030   420      888,0000     9                    888,0000   188100         
  43170   420      888,0000    17                    888,0000   230728         
  51343   421      888,0000     9                    888,0000   271702         
  59750   429      888,0000     6                    888,0000   312494         
  92977   474      888,0000     8                    888,0000   482997         
Elapsed real time =   5,15 sec. (tree size =  0,03 MB, solutions = 0)
 123962   862      888,0000    46                    888,0000   652615         
 156283  1111      888,0000     7                    888,0000   822687         
 191207  1183      888,0000     9                    888,0000   979699         
 225884  1197      888,0000     9                    888,0000  1148296         
 259792  1092      888,0000    12                    888,0000  1314992         
 293636  1470    infeasible                          888,0000  1486135         
 327637  1788    infeasible                          888,0000  1660273         
 361895  2163      888,0000     8                    888,0000  1832582         
 396719  2615      888,0000    14                    888,0000  2001725         
 430649  2706      888,0000    13                    888,0000  2165972         
Elapsed real time =  19,32 sec. (tree size =  0,46 MB, solutions = 0)
 465080  2845      888,0000    12                    888,0000  2331120         
 498779  3066    infeasible                          888,0000  2500749         
 533597  3157      888,0000     5                    888,0000  2658235         
 568724  3351      888,0000    14                    888,0000  2825596         
 602362  3399      888,0000    18                    888,0000  2994497         
 636838  3617      888,0000    10                    888,0000  3166792         
 669726  3913      888,0000     8                    888,0000  3346206         
 704386  4290      888,0000    12                    888,0000  3519903         
 740631  4496      888,0000    12                    888,0000  3689197         
 775280  4446      888,0000    10                    888,0000  3853070         
Elapsed real time =  33,48 sec. (tree size =  1,07 MB, solutions = 0)
 809491  4526      888,0000    13                    888,0000  4022743         
 844170  4624    infeasible                          888,0000  4196634         
 878767  4766      888,0000    10                    888,0000  4368808         
 911005  4745      888,0000    14                    888,0000  4543929         
 945166  5487      888,0000    14                    888,0000  4703141         
 978144  6062    infeasible                          888,0000  4871703         
 1010695  6547      888,0000    12                    888,0000  5053980         
 1042877  6827      888,0000    10                    888,0000  5224781         
 1077663  6744    infeasible                          888,0000  5390460         
 1110373  6766      888,0000    12                    888,0000  5556338         
Elapsed real time =  47,73 sec. (tree size =  1,93 MB, solutions = 0)
 1144797  7142      888,0000    26                    888,0000  5720386         
 1180190  7291      888,0000     9                    888,0000  5885206         
 1215257  7770      888,0000    10                    888,0000  6058309         
 1253297  8556      888,0000     8                    888,0000  6219225         
 1290487  8618      888,0000     7                    888,0000  6380483         
 1327627  8607      888,0000    19                    888,0000  6543374         
 1363666  9066      888,0000     8                    888,0000  6705136         
 1398802  9556      888,0000     8                    888,0000  6871008         
 1434513  9851      888,0000    12                    888,0000  7047644         
 1471244 10352      888,0000    10                    888,0000  7219447         
Elapsed real time =  61,82 sec. (tree size =  3,32 MB, solutions = 0)
 1509978 10198      888,0000    12                    888,0000  7379256         
 1546112 10511      888,0000    12                    888,0000  7549050         
 1582173 10618      888,0000     7                    888,0000  7709374         
 1619484 10668      888,0000    11                    888,0000  7860016         
 1655969 10970      888,0000    11                    888,0000  8024035         
 1693078 11312      888,0000     9                    888,0000  8188963         
 1730444 11441      888,0000    15                    888,0000  8348914         
 1766948 11883    infeasible                          888,0000  8512955         
 1803039 12045      888,0000    14                    888,0000  8672578         
 1839377 12250      888,0000    15                    888,0000  8827002         
Elapsed real time =  75,88 sec. (tree size =  3,95 MB, solutions = 0)
*1846129 12198      integral     0      888,0000      888,0000  8856653    0,00%
 1846132 12199      888,0000    11      888,0000      888,0000  8856670    0,00%

Clique cuts applied:  7
Cover cuts applied:  1
Implied bound cuts applied:  16
Mixed integer rounding cuts applied:  1
Gomory fractional cuts applied:  1

Root node processing (before b&c):
  Real time             =    0,04
Parallel b&c, 8 threads:
  Real time             =   76,11
  Sync time (average)   =    1,03
  Wait time (average)   =    0,01
                          -------
Total (root+branch&cut) =   76,14 sec.

<<< solve


OBJECTIVE: 888
t =  [0 10 20 39 58 77 119 138 157 176 195 218 237 256 275 294 317 336 355 374 393
     416 435 454 473 492 515 534 553 572 591 614 633 652 671 690 713 732 751
     770 789 812 831 850 869 888]
y =  [[0 0 0 0 0 0 1 1 1 1 0 0 0 0 0 0 0 0 0 0 0 0 0 0 0 0 0 0 0 0 0 0 0 0 0 0 0
         0 0 0 0 0 0 0 0 0]
         [0 0 0 0 0 0 1 1 1 1 1 0 0 0 0 0 0 0 0 0 0 0 0 0 0 0 0 0 0 0 0 0 0
         0 0 0 0 0 0 0 0 0 0 0 0 0]
         [0 0 0 0 0 0 1 1 1 1 1 1 0 0 0 0 0 0 0 0 0 0 0 0 0 0 0 0 0 0 0 0 0
         0 0 0 0 0 0 0 0 0 0 0 0 0]
         [0 0 0 0 0 0 0 1 1 1 1 1 1 0 0 0 0 0 0 0 0 0 0 0 0 0 0 0 0 0 0 0 0
         0 0 0 0 0 0 0 0 0 0 0 0 0]
         [0 0 0 0 0 0 0 0 1 1 1 1 1 1 0 0 0 0 0 0 0 0 0 0 0 0 0 0 0 0 0 0 0
         0 0 0 0 0 0 0 0 0 0 0 0 0]
         [0 0 0 0 0 0 0 0 0 1 1 1 1 1 1 0 0 0 0 0 0 0 0 0 0 0 0 0 0 0 0 0 0
         0 0 0 0 0 0 0 0 0 0 0 0 0]
         [0 0 0 0 0 0 0 0 0 0 0 1 1 1 1 1 0 0 0 0 0 0 0 0 0 0 0 0 0 0 0 0 0
         0 0 0 0 0 0 0 0 0 0 0 0 0]
         [0 0 0 0 0 0 0 0 0 0 0 0 1 1 1 1 1 0 0 0 0 0 0 0 0 0 0 0 0 0 0 0 0
         0 0 0 0 0 0 0 0 0 0 0 0 0]
         [0 0 0 0 0 0 0 0 0 0 0 0 0 1 1 1 1 1 0 0 0 0 0 0 0 0 0 0 0 0 0 0 0
         0 0 0 0 0 0 0 0 0 0 0 0 0]
         [0 0 0 0 0 0 0 0 0 0 0 0 0 0 1 1 1 1 1 0 0 0 0 0 0 0 0 0 0 0 0 0 0
         0 0 0 0 0 0 0 0 0 0 0 0 0]
         [0 0 0 0 0 0 0 0 0 0 0 0 0 0 0 1 1 1 1 1 0 0 0 0 0 0 0 0 0 0 0 0 0
         0 0 0 0 0 0 0 0 0 0 0 0 0]
         [0 0 0 0 0 0 0 0 0 0 0 0 0 0 0 0 1 1 1 1 1 0 0 0 0 0 0 0 0 0 0 0 0
         0 0 0 0 0 0 0 0 0 0 0 0 0]
         [0 0 0 0 0 0 0 0 0 0 0 0 0 0 0 0 0 1 1 1 1 1 0 0 0 0 0 0 0 0 0 0 0
         0 0 0 0 0 0 0 0 0 0 0 0 0]
         [0 0 0 0 0 0 0 0 0 0 0 0 0 0 0 0 0 0 1 1 1 1 1 0 0 0 0 0 0 0 0 0 0
         0 0 0 0 0 0 0 0 0 0 0 0 0]
         [0 0 0 0 0 0 0 0 0 0 0 0 0 0 0 0 0 0 0 1 1 1 1 1 0 0 0 0 0 0 0 0 0
         0 0 0 0 0 0 0 0 0 0 0 0 0]
         [0 0 0 0 0 0 0 0 0 0 0 0 0 0 0 0 0 0 0 0 1 1 1 1 1 0 0 0 0 0 0 0 0
         0 0 0 0 0 0 0 0 0 0 0 0 0]
         [0 0 0 0 0 0 0 0 0 0 0 0 0 0 0 0 0 0 0 0 0 1 1 1 1 1 0 0 0 0 0 0 0
         0 0 0 0 0 0 0 0 0 0 0 0 0]
         [0 0 0 0 0 0 0 0 0 0 0 0 0 0 0 0 0 0 0 0 0 0 1 1 1 1 1 0 0 0 0 0 0
         0 0 0 0 0 0 0 0 0 0 0 0 0]
         [0 0 0 0 0 0 0 0 0 0 0 0 0 0 0 0 0 0 0 0 0 0 0 1 1 1 1 1 0 0 0 0 0
         0 0 0 0 0 0 0 0 0 0 0 0 0]
         [0 0 0 0 0 0 0 0 0 0 0 0 0 0 0 0 0 0 0 0 0 0 0 0 1 1 1 1 1 0 0 0 0
         0 0 0 0 0 0 0 0 0 0 0 0 0]
         [0 0 0 0 0 0 0 0 0 0 0 0 0 0 0 0 0 0 0 0 0 0 0 0 0 1 1 1 1 1 0 0 0
         0 0 0 0 0 0 0 0 0 0 0 0 0]
         [0 0 0 0 0 0 0 0 0 0 0 0 0 0 0 0 0 0 0 0 0 0 0 0 0 0 1 1 1 1 1 0 0
         0 0 0 0 0 0 0 0 0 0 0 0 0]
         [0 0 0 0 0 0 0 0 0 0 0 0 0 0 0 0 0 0 0 0 0 0 0 0 0 0 0 1 1 1 1 1 0
         0 0 0 0 0 0 0 0 0 0 0 0 0]
         [0 0 0 0 0 0 0 0 0 0 0 0 0 0 0 0 0 0 0 0 0 0 0 0 0 0 0 0 1 1 1 1 1
         0 0 0 0 0 0 0 0 0 0 0 0 0]
         [0 0 0 0 0 0 0 0 0 0 0 0 0 0 0 0 0 0 0 0 0 0 0 0 0 0 0 0 0 1 1 1 1
         1 0 0 0 0 0 0 0 0 0 0 0 0]
         [0 0 0 0 0 0 0 0 0 0 0 0 0 0 0 0 0 0 0 0 0 0 0 0 0 0 0 0 0 0 1 1 1
         1 1 0 0 0 0 0 0 0 0 0 0 0]
         [0 0 0 0 0 0 0 0 0 0 0 0 0 0 0 0 0 0 0 0 0 0 0 0 0 0 0 0 0 0 0 1 1
         1 1 1 0 0 0 0 0 0 0 0 0 0]
         [0 0 0 0 0 0 0 0 0 0 0 0 0 0 0 0 0 0 0 0 0 0 0 0 0 0 0 0 0 0 0 0 1
         1 1 1 1 0 0 0 0 0 0 0 0 0]
         [0 0 0 0 0 0 0 0 0 0 0 0 0 0 0 0 0 0 0 0 0 0 0 0 0 0 0 0 0 0 0 0 0
         1 1 1 1 1 0 0 0 0 0 0 0 0]
         [0 0 0 0 0 0 0 0 0 0 0 0 0 0 0 0 0 0 0 0 0 0 0 0 0 0 0 0 0 0 0 0 0
         0 1 1 1 1 1 0 0 0 0 0 0 0]
         [0 0 0 0 0 0 0 0 0 0 0 0 0 0 0 0 0 0 0 0 0 0 0 0 0 0 0 0 0 0 0 0 0
         0 0 1 1 1 1 1 0 0 0 0 0 0]
         [0 0 0 0 0 0 0 0 0 0 0 0 0 0 0 0 0 0 0 0 0 0 0 0 0 0 0 0 0 0 0 0 0
         0 0 0 1 1 1 1 1 0 0 0 0 0]
         [0 0 0 0 0 0 0 0 0 0 0 0 0 0 0 0 0 0 0 0 0 0 0 0 0 0 0 0 0 0 0 0 0
         0 0 0 0 1 1 1 1 1 0 0 0 0]
         [0 0 0 0 0 0 0 0 0 0 0 0 0 0 0 0 0 0 0 0 0 0 0 0 0 0 0 0 0 0 0 0 0
         0 0 0 0 0 1 1 1 1 1 0 0 0]
         [0 0 0 0 0 0 0 0 0 0 0 0 0 0 0 0 0 0 0 0 0 0 0 0 0 0 0 0 0 0 0 0 0
         0 0 0 0 0 0 1 1 1 1 1 0 0]
         [0 0 0 0 0 0 0 0 0 0 0 0 0 0 0 0 0 0 0 0 0 0 0 0 0 0 0 0 0 0 0 0 0
         0 0 0 0 0 0 0 1 1 1 1 1 0]
         [0 0 0 0 0 0 0 0 0 0 0 0 0 0 0 0 0 0 0 0 0 0 0 0 0 0 0 0 0 0 0 0 0
         0 0 0 0 0 0 0 0 1 1 1 1 1]
         [0 0 0 0 0 0 0 0 0 0 0 0 0 0 0 0 0 0 0 0 0 0 0 0 0 0 0 0 0 0 0 0 0
         0 0 0 0 0 0 0 0 0 1 1 1 1]
         [0 0 0 0 0 0 0 0 0 0 0 0 0 0 0 0 0 0 0 0 0 0 0 0 0 0 0 0 0 0 0 0 0
         0 0 0 0 0 0 0 0 0 0 1 1 1]
         [0 0 0 0 0 0 0 0 0 0 0 0 0 0 0 0 0 0 0 0 0 0 0 0 0 0 0 0 0 0 0 0 0
         0 0 0 0 0 0 0 0 0 0 0 1 1]
         [0 0 0 0 0 0 0 0 0 0 0 0 0 0 0 0 0 0 0 0 0 0 0 0 0 0 0 0 0 0 0 0 0
         0 0 0 0 0 0 0 0 0 0 0 0 1]
         [0 0 0 0 0 0 0 0 0 0 0 0 0 0 0 0 0 0 0 0 0 0 0 0 0 0 0 0 0 0 0 0 0
         0 0 0 0 0 0 0 0 0 0 0 0 0]
         [0 0 0 0 0 0 0 0 0 0 0 0 0 0 0 0 0 0 0 0 0 0 0 0 0 0 0 0 0 0 0 0 0
         0 0 0 0 0 0 0 0 0 0 0 0 0]
         [0 0 0 0 0 0 0 0 0 0 0 0 0 0 0 0 0 0 0 0 0 0 0 0 0 0 0 0 0 0 0 0 0
         0 0 0 0 0 0 0 0 0 0 0 0 0]
         [0 0 0 0 0 0 0 0 0 0 0 0 0 0 0 0 0 0 0 0 0 0 0 0 0 0 0 0 0 0 0 0 0
         0 0 0 0 0 0 0 0 0 0 0 0 0]
         [0 0 0 0 0 0 0 0 0 0 0 0 0 0 0 0 0 0 0 0 0 0 0 0 0 0 0 0 0 0 0 0 0
         0 0 0 0 0 0 0 0 0 0 0 0 0]]
Optimal = 987

<<< post process


<<< done

